p cnf 50 20
x -1 4 -5 -6 9 10 -11 12 -15 17 -18 24 -25 26 -28 29 -30 31 -32 33 35 -38 39 -40 -43 44 -45 47 -50 0
x -4 5 10 -12 -17 20 21 -22 -23 26 -30 32 39 -43 44 47 0
x -2 -4 -5 6 7 -9 14 18 22 -24 -25 26 -27 -29 31 36 -37 38 39 41 42 43 45 46 47 -48 -49 50 0
x 1 -2 5 8 -9 11 22 23 -26 28 30 -34 39 -40 -41 -44 45 -50 0
x 1 3 4 6 -7 -8 -9 10 11 13 14 -19 20 22 -24 25 27 -30 -32 -34 35 39 -40 41 43 -44 -46 -47 -48 0
x -1 2 4 7 -11 -12 -14 -15 -16 -18 22 23 24 25 -26 30 -32 -35 42 44 45 46 49 50 0
x -1 -3 -4 -6 7 -9 13 -14 -15 -16 -17 -18 19 21 24 27 28 -29 31 32 -33 36 -38 -39 -41 -42 -43 45 46 47 49 -50 0
x -2 -5 -10 -13 -15 17 20 21 -23 24 26 -32 -33 35 -37 -39 40 42 -48 49 0
x -2 -3 4 -6 12 19 -24 -26 27 29 30 -31 32 33 -34 -35 -38 -39 41 42 -43 45 46 47 0
x -1 -4 -7 -8 11 -13 14 16 -17 -21 22 -23 -24 27 28 -29 31 -32 -33 34 38 -40 43 -44 45 49 -50 0
x -1 -3 -6 7 14 16 -18 -19 -20 22 24 25 30 35 36 37 -38 -39 40 -42 43 -44 -45 -47 49 -50 0
x -2 -3 -6 7 9 -11 -12 14 16 18 -19 -21 -34 -36 -39 -42 -44 45 50 0
x -1 -4 -6 -7 8 9 10 -12 -14 -15 -16 -22 23 25 -26 27 -33 -36 -37 42 -43 47 -48 0
x 1 -2 3 5 -6 -9 10 12 -13 -15 16 18 -19 -24 30 -33 34 -35 -39 -40 42 -45 47 48 -50 0
x 2 -3 4 7 -9 11 -12 -20 21 -23 25 -26 -27 -34 35 -36 -41 44 45 -49 0
x -3 5 -8 9 -11 16 -21 -25 26 27 31 -33 34 -35 -37 43 44 48 -49 50 0
x 1 -2 -5 -8 9 10 13 15 17 18 -21 23 24 25 26 -28 -29 -32 34 -36 -39 40 43 44 0
x 1 -7 9 13 17 18 -20 -21 -23 27 30 31 33 -36 37 -38 -39 -41 -45 -46 -49 -50 0
x 5 8 10 12 -13 -14 -15 16 18 -20 21 23 -25 -27 -28 -29 30 -32 -35 -41 -42 49 -50 0
x -6 -11 14 -15 -18 23 24 25 26 -30 32 33 34 35 36 37 40 -42 46 -49 0
g -10